#######################################
### Exact MIP solver for the HHCRSP ###
#######################################
-- Instance file: new-instances/HHCRSP_50_10_85_1.0_R_RC.txt
-- Max threads: 4
-- Time limit: 999999 seconds
-- Use initial solution: No
Trivial flow violations prevented generating 6023 variables.
Model exported.
Version identifier: 20.1.0.0 | 2020-11-10 | 9bedb6d68
CPXPARAM_Threads                                 4
CPXPARAM_TimeLimit                               999999
Parallel mode: deterministic, using up to 4 threads for concurrent optimization:
 * Starting dual Simplex on 1 thread...
 * Starting Barrier on 3 threads...
Tried aggregator 1 time.
LP Presolve eliminated 1452 rows and 412 columns.
Reduced LP has 7606 rows, 7347 columns, and 65576 nonzeros.
Presolve time = 0.03 sec. (19.12 ticks)
Symmetry aggregator did 6497 additional substitutions.

Iteration log . . .
Iteration:     1   Dual objective     =             0.000000
Iteration:   215   Dual objective     =           146.666667

Dual crossover.
  Dual:  Fixing 109 variables.
      108 DMoves:  Infeasibility  3.86357697e-14  Objective  1.46666667e+02
        0 DMoves:  Infeasibility  1.83186884e-14  Objective  1.46666667e+02
  Dual:  Pushed 1, exchanged 108.
  Primal:  Fixing 32 variables.
       31 PMoves:  Infeasibility  0.00000000e+00  Objective  1.46666667e+02
        0 PMoves:  Infeasibility  5.55111512e-17  Objective  1.46666667e+02
  Primal:  Pushed 6, exchanged 26.

Dual simplex solved model.


Solution status from MIP model:
-- Processing time: 0.066 sec.
-- Memory used: 73.5537 MB
-- Best bound: inf
-- Obj value: 146.667
-- Gap: inf%
-- Total distance: 440
-- Total tardiness: 0
-- Largest tardiness: 0
